118
100000
3021
1664
22436
12365
2871
6423
10231
7836
11754
4491
11947
2988
24513
20076
7769
9876
17386
5079
395
4035
22064
10979
14188
825
4071
20728
14846
10495
19610
18002
4959
7891
6755
10363
18096
18472
18288
13997
5468
6072
4508
11551
12474
5770
9214
8574
23856
8
5114
19289
15914
20075
18501
17165
355
6115
7003
18791
20442
6660
1773
2471
14281
23633
21126
8901
21237
24715
12786
9296
23339
20152
690
18385
6929
21231
10979
11367
20873
14531
17475
7360
24126
12130
637
13528
16375
16224
22166
20036
738
16934
3805
5045
20411
24400
16590
10159
19375
12393
22869
12829
14663
20439
11395
1731
22417
21882
6005
14490
19580
13348
4749
15418
23464
11208
12866
17341
